\ Model milp
\ LP format - for model browsing. Use MPS format to capture full model detail.
Minimize
  - C0 - C1
Subject To
 R0: - 2 C0 + 2 C1 <= -1
 R1: 10 C0 - 8 C1 <= 13
Bounds
Generals
 C0 C1
End
